NAME : portcgen-21-15
COMMENT : portcgen N=21, seed=15
TYPE : TSP
DIMENSION : 21
EDGE_WEIGHT_TYPE : EUC_2D
NODE_COORD_SECTION
1 113129 103512
2 -370917 -253034
3 172610 66675
4 189923 323364
5 49983 -341133
6 359772 -334081
7 264973 -8660
8 -244703 168974
9 367967 102043
10 -50388 -273077
11 97311 149913
12 -187633 178936
13 354813 -266853
14 -183824 -254181
15 322313 18624
16 -43484 -311250
17 -100682 133328
18 342155 229116
19 -425055 -7786
20 272499 -136141
21 -128630 24015
